NPROCS=0
This instance is clustered!
Gurobi Optimizer version 9.0.0 build v9.0.0rc2 (linux64)
Optimize a model with 18 rows, 82 columns and 162 nonzeros
Model fingerprint: 0x150ed100
Variable types: 1 continuous, 81 integer (81 binary)
Coefficient statistics:
  Matrix range     [1e+00, 1e+00]
  Objective range  [1e+00, 4e+01]
  Bounds range     [1e+00, 1e+00]
  RHS range        [1e+00, 1e+00]
Presolve removed 2 rows and 24 columns
Presolve time: 0.00s
Presolved: 16 rows, 58 columns, 114 nonzeros
Variable types: 1 continuous, 57 integer (57 binary)

Root relaxation: objective 6.280515e+01, 14 iterations, 0.00 seconds

    Nodes    |    Current Node    |     Objective Bounds      |     Work
 Expl Unexpl |  Obj  Depth IntInf | Incumbent    BestBd   Gap | It/Node Time

     0     0   66.00934    0   10          -   66.00934      -     -    0s
H    0     0                     115.6255202   66.00934  42.9%     -    0s
H    0     0                      99.3636668   66.00934  33.6%     -    0s
     0     0   71.65493    0   12   99.36367   71.65493  27.9%     -    0s
     0     0   74.01042    0   13   99.36367   74.01042  25.5%     -    0s
     0     2   76.09975    0   18   99.36367   76.09975  23.4%     -    0s
*  114    25               7      90.7225299   80.72004  11.0%   3.4    0s
*  115    25               7      86.0471695   80.72004  6.19%   3.4    0s
*  150     1               7      84.5695059   83.76881  0.95%   3.1    0s

Cutting planes:
  Gomory: 1
  Lazy constraints: 47

Explored 152 nodes (492 simplex iterations) in 0.06 seconds
Thread count was 12 (of 12 available processors)

Solution count 5: 84.5695 86.0472 90.7225 ... 115.626

Optimal solution found (tolerance 1.00e-04)
Best objective 8.456950591204e+01, best bound 8.456950591204e+01, gap 0.0000%

User-callback calls 440, time in user-callback 0.00 sec
/projects/academic/josewalt/caigao/RRARP_BD/BendersDecomp/ret/model_outs/n_7_m_2_algo_3.out
 =====>>>>> Solution is written to file in <../ret/model_outs> !!!
===>> All Done!
